1073
1073
1073
1064
1039
1030
1030
1014
1014
1024
995
995
1015
1015
1015
941
941
1019
1019
989
1019
985
985
1019
972
972
972
1036
1061
1061
1045
1045
1045
1019
1067
1067
1020
1020
946
946
946
927
931
931
929
929
977
962
943
977
991
981
988
1072
926
926
968
1027
1031
1033
1033
1016
1016
799
799
799
799
799
799
799
799
799
799
893
893
893
893
893
893
901
901
901
901
901
901
901
870
870
870
870
915
931
931
1028
1024
974
974
974
974
959
959
1001
961
961
985
985
985
999
968
939
939
939
939
939
939
939
939
939
1007
965
955
955
955
968
964
968
940
922
922
922
908
888
978
966
971
971
869
869
869
869
869
869
869
869
869
939
934
934
934
934
858
858
858
858
858
917
917
917
910
918
876
876
918
769
955
955
945
945
945
1012
1012
949
949
973
1014
920
920
907
939
965
955
926
955
922
811
811
811
865
843
843
865
876
876
907
907
907
842
842
842
890
